BEGIN IONS
PEPMASS=897.4842269
CHARGE=1+
FILENAME=PMA_090115
UNPD_ID=UNPD182224
MOLECULAR_FORMULA=C46H72O17
SEQ=*..*
IONMODE=Positive
EXACTMASS=896.4769509
NAME=UNPD182224
SMILES=CC1(C)CC2C3=CCC4C5(C)CCC(OC6OC(COC7OCC(O)C(O)C7OC8OCC(O)C(O)C8O)C(O)C(O)C6O)C(C)(C)C5CCC4(C)C3(C)CC(O)C29CC1OC9=O
INCHI=InChI=1/C46H72O17/c1-41(2)14-21-20-8-9-26-43(5)12-11-28(42(3,4)25(43)10-13-44(26,6)45(20,7)15-27(49)46(21)16-29(41)62-40(46)56)61-38-35(55)33(53)32(52)24(60-38)19-59-39-36(31(51)23(48)18-58-39)63-37-34(54)30(50)22(47)17-57-37/h8,21-39,47-55H,9-19H2,1-7H3/t21-,22+,23-,24+,25-,26+,27+,28-,29-,30-,31-,32+,33-,34+,35+,36+,37-,38-,39-,43-,44+,45+,46+/m0/s1
INCHIAUX=PVLIPPHITNPLBJ-XSLOFZTCSA-N
SCANS=1
133.0500838 3.587550603
151.0606485 1.378088351
163.0606485 0.5538567532
265.0923425 0.9747330397
295.1029072 0.9379698194
423.3263056 0.9769142945
427.1451659 0.8334102768
427.3576057 0.708887258
435.3263056 3.062132945
441.3368703 0.6091803437
451.3212202 0.6505330945
453.3368703 12.91370513
455.3525204 0.5936094579
471.347435 13.50522402
597.379129 0.8027157452
615.3896937 2.807904142
633.4002584 1.597081285
721.4526879 0.6366457095
729.4213878 2.12864556
731.4370378 1.312340442
745.4163024 1.015603987
747.4319525 13.34233162
749.4476025 0.8345867929
765.4425171 6.600097013
849.4636465 0.6153282309
851.4792966 0.6425997852
853.4949466 0.8198603176
861.4636465 4.30979946
879.4742112 14.27272699
879.4742112 1.584513804
897.4847759 5.391423727
57.07042529 0.8249234055
115.0395191 0.7266529286
133.0500838 5.169483019
135.0657338 0.8145864274
149.0449984 0.7107003324
151.0606485 0.6979079826
163.0606485 0.7529030008
177.0762985 0.8757918889
265.0923425 0.578052214
295.1029072 1.821611246
297.1185573 0.8030155093
313.1134719 0.7321651902
371.25862 0.5469855449
397.27427 0.6884793085
423.3263056 0.6532412707
427.3576057 1.025474796
435.3263056 2.930025481
451.3212202 0.6776794028
453.3368703 20.77420987
469.3317849 0.5647197271
471.347435 23.91508239
615.3896937 5.423603645
633.4002584 5.159148793
721.4526879 0.588016042
729.4213878 0.7516967741
747.4319525 12.19495778
749.4476025 0.9576527529
765.4425171 4.357803704
861.4636465 0.9469666075
879.4742112 2.727434586
879.4742112 0.6090283732
57.07042529 3.36399893
73.0289544 2.826386036
117.0551691 1.234039181
131.0344337 1.310725325
133.0500838 6.872315423
149.0449984 2.31064346
163.0606485 3.989647518
177.0762985 2.06480189
293.0872571 1.703274062
295.1029072 6.983444267
369.2429699 1.219975915
397.27427 1.405470506
399.2899201 1.135354235
413.3055702 0.9863488831
421.3106556 2.101840756
423.3263056 3.198767931
425.3419557 1.060574629
427.3576057 2.027233154
435.3263056 1.103254836
439.3212202 2.656779589
441.3368703 2.743287786
451.3212202 2.027791737
453.3368703 8.108292832
469.3317849 0.9618953754
471.347435 20.49777997
615.3896937 2.320410174
721.4526879 1.625282147
747.4319525 6.257807226
835.4479964 1.489248796
879.4742112 1.929961961
879.4742112 2.483365468
END IONS
