BEGIN IONS
PEPMASS=1435.497067
CHARGE=1+
FILENAME=PMA_000002
UNPD_ID=UNPD10
MOLECULAR_FORMULA=C62H92Cl2O33
SEQ=*..*
IONMODE=Positive
EXACTMASS=1434.489791
NAME=UNPD10
SMILES=COCC1OC(OC2OCC3OC4(OCC(O)C5OCOC45)OC3C2OC)C(OC)C(O)C1OC6OC(C)C(OC)C(OC7OC(C)C8OC9(CC(O)C(OC%10CC(OC%11CC(C)C(OC)C(C)O%11)C(OC(=O)c%12cc(Cl)c(O)c(Cl)c%12OC)C(C)O%10)C(C)O9)OC8(C)C7O)C6O
INCHI=InChI=1/C62H92Cl2O33/c1-22-14-35(82-23(2)41(22)73-9)86-32-16-36(83-24(3)43(32)89-55(71)28-15-29(63)38(67)37(64)45(28)75-11)88-42-26(5)93-61(17-30(42)65)96-53-27(6)85-59(52(70)60(53,7)97-61)91-49-40(69)56(84-25(4)44(49)74-10)90-47-33(19-72-8)87-58(50(76-12)39(47)68)92-57-51(77-13)48-34(20-78-57)94-62(95-48)54-46(79-21-80-54)31(66)18-81-62/h15,22-27,30-36,39-44,46-54,56-59,65-70H,14,16-21H2,1-13H3/t22-,23-,24-,25-,26+,27+,30+,31+,32-,33+,34+,35+,36+,39-,40-,41+,42+,43-,44-,46-,47+,48-,49-,50+,51+,52-,53-,54-,56+,57-,58-,59-,60+,61-,62-/m1/s1
INCHIAUX=NTHPXGNBYQIYAM-HQXFKKNPSA-N
SCANS=1
131.1072047 1.702087501
143.1072047 1.208370018
191.0919486 2.503610934
207.0868632 4.839541201
209.1025133 1.292231579
218.9615744 3.776397433
289.0923425 5.509782445
289.0923425 4.97901962
307.1029072 12.17359258
351.1655074 2.380309245
367.1604221 4.263894162
479.1764661 3.081194894
497.1870307 6.046969559
577.1607277 1.603062224
639.2500249 4.248486321
639.2864104 1.264679486
655.281325 1.668337342
657.2605896 4.532207496
927.3709279 2.005456001
945.3814926 1.81481593
987.303154 1.882340148
1003.298069 1.641165513
1129.402534 6.000376954
1147.413098 3.556207768
1275.387671 2.204829564
1293.398236 1.410336514
1403.471401 3.897797824
1405.487051 1.166324862
1417.487051 1.86877094
1417.487051 3.069744255
1435.497616 2.408059689
41.03912516 1.254877959
131.0708192 1.028266733
143.1072047 2.934771256
147.0657338 1.458120311
191.0919486 1.568910622
207.0868632 5.183810678
209.1025133 3.809502601
218.9615744 3.828666107
289.0923425 4.829629338
289.0923425 2.350958539
307.1029072 11.72182906
349.0245686 1.438928273
351.1655074 1.316216349
367.1604221 3.867035723
369.1760721 2.788072403
465.160816 1.275663284
479.1764661 2.708062847
497.1870307 14.37234559
639.2500249 3.554782984
655.281325 2.176260841
657.2605896 8.650640633
657.2969751 1.524739237
927.3709279 1.911293196
945.3814926 2.842075082
987.303154 1.039607403
1003.298069 2.009797546
1005.313719 1.371488615
1129.402534 1.85146606
1185.517652 1.06880252
1275.387671 1.783827805
1403.471401 2.479550406
41.03912516 1.582659858
113.09664 2.691698089
115.0395191 2.187735084
131.1072047 2.08535666
161.0813839 2.973595717
163.0606485 1.503379774
188.9510097 3.326083793
191.0919486 4.154089374
207.0868632 11.03692081
209.1025133 3.111494081
218.9615744 5.588047694
289.0923425 3.015838968
289.0923425 1.573691688
289.128728 1.802481042
301.055957 1.387285409
307.1029072 7.255646075
351.1655074 3.646187179
367.1604221 8.747672313
369.1760721 2.487501949
479.1764661 1.64003373
497.1870307 8.32003258
637.1454715 1.802481042
639.2500249 1.714591434
639.2864104 1.515560319
657.2605896 3.726092541
987.303154 1.609769438
1129.402534 1.409767708
1131.418184 1.568758677
1217.543866 1.43486412
1403.471401 2.58438754
1417.487051 2.516295312
END IONS